12      4       
11      14      12      13      
0       0       0       0       0       3       2       3       4       
6       9       5       1       8       2       5       11      
7       3       0       8       6       1       7       
6       0       4       5       7       2       9       11      
10      0       10      4       0       1       6       
5       5       7       2       1       1       8       
6       10      7       9       0       1       10      
4       8       0       3       1       1       12      
6       0       2       6       8       1       12      
8       0       4       10      10      1       12      
4       0       7       0       5       1       12      
0       0       0       0       0       0       
